32      4       
12      19      12      16      
0       0       0       0       0       3       2       3       4       
10      4       9       3       1       3       5       6       8       
5       6       8       1       1       2       5       6       
4       1       7       1       1       2       5       8       
8       5       15      8       1       1       7       
7       1       1       2       7       1       7       
4       3       1       8       7       2       9       10      
5       6       5       1       1       2       9       10      
4       3       1       2       6       3       11      13      14      
5       8       17      1       6       3       11      12      14      
4       4       3       8       1       2       15      16      
10      4       8       12      9       2       15      16      
6       1       3       2       6       2       15      16      
3       1       1       4       1       1       15      
7       2       8       1       9       2       17      20      
2       4       1       2       1       2       18      20      
7       1       1       1       5       1       18      
3       1       8       1       6       1       19      
5       1       1       1       1       2       21      22      
6       1       7       1       6       1       21      
3       6       3       3       4       2       23      24      
1       6       4       5       9       1       23      
1       1       6       1       5       2       26      28      
1       3       2       1       1       1       25      
7       5       5       1       1       2       27      28      
6       1       2       1       1       1       27      
2       1       5       1       1       2       29      30      
5       1       1       1       7       2       29      30      
2       1       2       2       1       1       31      
8       5       1       8       13      1       31      
2       3       7       6       1       1       32      
0       0       0       0       0       0       
